sifdecoder -A pc64.lnx.gfo -st   A0ENSNDL

 Problem name: A0ENSNDL

 Double precision version will be formed

 The objective function uses 2 linear groups
 
 There are 15002 linear equality constraints
 
 There are 10002 free variables
 There are 10000 variables bounded only from below 
 There are 25004 fixed variables
 
 
 File successfully decoded
 CUTEST: tools (double precision version) compiled successfully
 CUTEst: ipopt (double precision version) compiled successfully

******************************************************************************
This program contains Ipopt, a library for large-scale nonlinear optimization.
 Ipopt is released as open source code under the Eclipse Public License (EPL).
         For more information visit http://projects.coin-or.org/Ipopt
******************************************************************************

This is Ipopt version trunk, running with linear solver ma57.

Number of nonzeros in equality constraint Jacobian...:    53021
Number of nonzeros in inequality constraint Jacobian.:        0
Number of nonzeros in Lagrangian Hessian.............:    25002

Total number of variables............................:    20002
                     variables with only lower bounds:    10000
                variables with lower and upper bounds:        0
                     variables with only upper bounds:        0
Total number of equality constraints.................:    15002
Total number of inequality constraints...............:        0
        inequality constraints with only lower bounds:        0
   inequality constraints with lower and upper bounds:        0
        inequality constraints with only upper bounds:        0

iter    objective    inf_pr   inf_du lg(mu)  ||d||  lg(rg) alpha_du alpha_pr  ls
   0  4.9999900e-01 9.92e+01 6.96e-01  -1.0 0.00e+00    -  0.00e+00 0.00e+00   0
Reallocating memory for MA57: lfact (1787737)
   1  4.7825137e-01 9.90e+01 1.18e+00  -1.0 2.03e+02  -4.0 9.83e-04 1.99e-03h  1
   2  6.8154503e-01 9.84e+01 2.20e+00  -1.0 8.87e+01  -4.5 2.01e-03 6.01e-03h  1
   3  3.6760857e+00 9.53e+01 2.80e+00  -1.0 9.97e+00  -5.0 8.39e-03 3.19e-02f  1
   4  3.3357916e+02 4.31e+01 6.15e+00  -1.0 9.66e+00  -5.4 4.64e-02 5.48e-01f  1
   5  3.1387564e+02 3.78e+01 3.81e+01  -1.0 5.32e+01  -5.9 7.10e-01 1.23e-01f  1
   6  3.5595799e+02 1.56e+01 3.63e+01  -1.0 7.32e+00  -6.4 1.00e+00 5.87e-01h  1
   7  3.8601369e+02 5.34e+00 4.29e+02  -1.0 2.51e+00  -6.9 1.29e-01 6.58e-01h  1
   8  3.9251501e+02 3.20e+00 3.98e+02  -1.0 1.68e+00  -7.3 7.13e-02 4.02e-01h  1
   9  3.9525085e+02 2.19e+00 4.13e+02  -1.0 1.38e+00  -7.8 2.48e-01 3.14e-01h  1
iter    objective    inf_pr   inf_du lg(mu)  ||d||  lg(rg) alpha_du alpha_pr  ls
  10  3.9763894e+02 1.38e+00 2.39e+03  -1.0 7.77e-01  -8.3 5.70e-01 3.70e-01h  1
  11  4.0007182e+02 5.08e-01 7.78e+04  -1.0 2.39e-01  -8.8 3.27e-02 6.32e-01h  1
  12  4.0068024e+02 2.94e-01 1.12e+05  -1.0 1.50e-01  -9.2 2.28e-02 4.22e-01h  1
  13  4.0086683e+02 2.25e-01 8.53e+04  -1.0 1.79e-01  -9.7 2.21e-02 2.33e-01h  1
  14  4.0099825e+02 1.79e-01 4.11e+04  -1.0 1.60e-01 -10.2 1.26e-02 2.04e-01h  1
  15  4.0108448e+02 1.47e-01 1.04e+05  -1.0 1.48e-01 -10.7 3.85e-03 1.78e-01h  1
  16  4.0114840e+02 1.25e-01 1.15e+05  -1.0 1.46e-01 -11.2 3.19e-03 1.51e-01h  1
  17  4.0119477e+02 1.08e-01 9.83e+04  -1.0 1.36e-01 -11.6 4.27e-02 1.39e-01h  1
  18  4.0124522e+02 8.99e-02 3.86e+04  -1.0 9.77e-02 -12.1 2.61e-02 1.64e-01h  1
  19  4.0130363e+02 6.84e-02 8.85e+05  -1.0 5.35e-02 -12.6 4.26e-03 2.40e-01h  1
iter    objective    inf_pr   inf_du lg(mu)  ||d||  lg(rg) alpha_du alpha_pr  ls
  20  4.0133774e+02 5.64e-02 7.29e+05  -1.0 5.76e-02 -13.1 3.43e-03 1.75e-01h  1
  21  4.0135891e+02 4.85e-02 5.43e+05  -1.0 6.04e-02 -13.5 1.13e-02 1.41e-01h  1
  22  4.0137590e+02 4.25e-02 4.70e+05  -1.0 6.05e-02 -14.0 1.32e-02 1.22e-01h  1
  23  4.0139137e+02 3.67e-02 8.74e+05  -1.0 4.70e-02 -13.6 2.35e-03 1.37e-01h  1
  24  4.0140532e+02 3.18e-02 7.89e+05  -1.0 4.18e-02 -14.1 2.23e-03 1.33e-01h  1
  25  4.0141443e+02 2.84e-02 7.02e+05  -1.0 4.49e-02 -13.6 1.25e-02 1.09e-01h  1
  26  4.0142317e+02 2.53e-02 5.01e+05  -1.0 4.07e-02 -14.1 1.45e-02 1.07e-01h  1
  27  4.0143311e+02 2.16e-02 1.51e+06  -1.0 2.58e-02 -13.7 2.40e-03 1.48e-01h  1
  28  4.0144139e+02 1.86e-02 1.53e+06  -1.0 2.42e-02 -14.2 2.25e-03 1.35e-01h  1
  29  4.0144659e+02 1.67e-02 1.36e+06  -1.0 2.70e-02 -13.7 9.04e-03 1.07e-01h  1
iter    objective    inf_pr   inf_du lg(mu)  ||d||  lg(rg) alpha_du alpha_pr  ls
  30  4.0145132e+02 1.50e-02 1.02e+06  -1.0 2.61e-02 -14.2 9.99e-03 9.90e-02h  1
  31  4.0145597e+02 1.32e-02 2.07e+06  -1.0 1.95e-02 -13.8 1.87e-03 1.18e-01h  1
  32  4.0146022e+02 1.17e-02 2.23e+06  -1.0 1.81e-02 -14.3 1.81e-03 1.13e-01h  1
  33  4.0146309e+02 1.06e-02 2.02e+06  -1.0 1.94e-02 -13.8 9.94e-03 9.44e-02h  1
  34  4.0146591e+02 9.65e-03 1.54e+06  -1.0 1.79e-02 -13.4 1.19e-02 9.26e-02h  1
  35  4.0146751e+02 9.04e-03 2.36e+06  -1.0 1.17e-02 -13.9 1.97e-03 6.35e-02f  2
  36  4.0148528e+02 2.50e-03 6.85e+05  -1.0 1.26e-03 -13.5 1.00e+00 7.23e-01h  1
Reallocating memory for MA57: lfact (5247808)
  37  4.0148651e+02 2.03e-03 9.55e+05  -1.0 9.08e-04 -14.0 3.93e-02 1.88e-01f  2
Reallocating memory for MA57: lfact (5544313)
  38  4.0148960e+02 8.48e-04 6.44e+05  -1.0 5.48e-04 -13.5 1.00e+00 5.82e-01h  1
Reallocating memory for MA57: lfact (6291913)
  39  4.0148992e+02 7.27e-04 1.57e+06  -1.0 2.28e-04 -14.0 1.00e+00 1.43e-01f  3
iter    objective    inf_pr   inf_du lg(mu)  ||d||  lg(rg) alpha_du alpha_pr  ls
  40  4.0149153e+02 1.15e-04 3.72e+05  -1.0 1.96e-04 -13.6 1.00e+00 8.42e-01h  1
  41  4.0149163e+02 7.53e-05 2.59e+06  -1.0 3.76e+00 -14.1 1.00e+00 3.44e-01f  2
  42  4.0149183e+02 9.69e-13 1.00e-06  -1.0 4.97e-01 -13.6 1.00e+00 1.00e+00h  1
  43  3.7211084e+00 2.68e-12 1.39e+03  -8.6 1.17e+01 -14.1 1.00e+00 1.00e+00f  1
  44  7.5043033e-03 7.72e-13 6.65e-01  -8.6 8.48e-03 -12.8 1.00e+00 1.00e+00f  1
  45 -2.0563011e-04 2.84e-14 2.79e-04  -8.6 7.86e-05 -11.4 1.00e+00 1.00e+00f  1
  46 -2.0898028e-04 1.81e-13 2.66e-14  -8.6 1.12e-06 -11.0 1.00e+00 1.00e+00f  1

Number of Iterations....: 46

                                   (scaled)                 (unscaled)
Objective...............:  -2.0898027881890307e-04   -2.0898027881890307e-04
Dual infeasibility......:   2.6645352591003757e-14    2.6645352591003757e-14
Constraint violation....:   1.8118839761882555e-13    1.8118839761882555e-13
Complementarity.........:   3.1923095923784223e-09    3.1923095923784223e-09
Overall NLP error.......:   3.1923095923784223e-09    3.1923095923784223e-09


Number of objective function evaluations             = 52
Number of objective gradient evaluations             = 47
Number of equality constraint evaluations            = 52
Number of inequality constraint evaluations          = 0
Number of equality constraint Jacobian evaluations   = 47
Number of inequality constraint Jacobian evaluations = 0
Number of Lagrangian Hessian evaluations             = 46
Total CPU secs in IPOPT (w/o function evaluations)   =     21.646
Total CPU secs in NLP function evaluations           =      1.856

EXIT: Optimal Solution Found.

************************ CUTEst statistics ************************


 Package used            :  IPOPT
 Problem                 :  A0ENSNDL  
 # variables             =           45006
 # constraints           =           15002
 # objective functions   =        0.1000000E+03
 # objective gradients   =        0.4800000E+02
 # objective Hessians    =        0.4700000E+02
 # Hessian-vector prdct  =        0.0000000E+00
 # constraints functions =        0.1010000E+03
 # constraints gradients =        0.4900000E+02
 # constraints Hessians  =        0.4700000E+02
 Exit code               =               0
 Final f                 =       -2.0898027881890307D-04
 Bounds feasibility      =        9.7505999984914234D-09
 Set up time             =            0.81 seconds
 Solve time              =           46.48 seconds


******************************************************************

